4 
5  38 53 
6  08 23 38 53 
7  09 24 39 54 
8  09 24 39 54 
9  09 24 39 54 
10  08 23 38 53 
11  08 23 38 53 
12  08 23 38 53 
13  08 23 39 54 
14  09 24 39 54 
15  09 26 41 56 
16  11 26 41 56 
17  11 26 41 56 
18  11 26 41 56 
19  11 25 39 54 
20  08 23 38 53 
21  08 23 38 53 
22  08 23 40 55 
23  09 26 
0 
